c SAT Generator for power-law distributed variable frequencies
c -g u -v 20 -c 91 -k 3 -p 2.750000 -b 3.200000 -f /home/schmidt/Devel/ni-kop-sat/data/ensemble/ruf20-91/ruf20-91-630 -u 1 -U 1 -s 521179458
p cnf 20 91
-11 -12 -13 0
-3 -13 17 0
13 -16 -18 0
12 -14 20 0
-11 16 -18 0
1 -13 20 0
7 -17 19 0
1 -10 13 0
15 17 -18 0
-5 8 -12 0
1 -3 11 0
-2 11 13 0
6 13 20 0
-2 4 -11 0
1 10 -19 0
11 -14 -15 0
7 11 17 0
11 12 -20 0
7 -8 19 0
1 -10 -20 0
5 -9 -18 0
3 -4 16 0
8 12 16 0
-7 -8 -19 0
3 -12 -16 0
-5 8 -13 0
-9 10 -18 0
7 11 -19 0
5 -10 -14 0
5 -13 16 0
6 8 -20 0
-9 17 19 0
3 7 16 0
-1 8 19 0
1 -9 10 0
8 -12 -19 0
-2 -4 11 0
11 -14 -18 0
8 14 -18 0
1 4 16 0
-1 9 12 0
-4 -5 9 0
-1 5 18 0
-9 -10 -17 0
4 -8 10 0
6 8 -18 0
6 -16 20 0
-11 13 -15 0
10 -13 15 0
5 9 14 0
-8 12 -20 0
-9 -11 -19 0
2 15 -18 0
-5 -6 -14 0
-1 -3 -12 0
-2 10 -13 0
-3 6 -13 0
-3 -8 12 0
-1 -5 13 0
-6 -11 16 0
2 -5 -14 0
-4 -10 -13 0
8 13 -19 0
8 -9 12 0
1 11 12 0
-12 -16 19 0
1 -10 -13 0
10 -14 -19 0
-2 -5 7 0
2 -9 16 0
5 -18 19 0
1 -14 15 0
6 10 13 0
11 14 20 0
-1 -7 -14 0
-7 -14 -18 0
14 -19 -20 0
-2 -12 -13 0
9 -10 -16 0
7 -16 18 0
13 15 17 0
-5 8 17 0
-3 12 16 0
-4 -11 16 0
3 -14 -16 0
-10 -13 -18 0
-13 17 -20 0
2 8 -11 0
13 -16 18 0
-11 -12 18 0
-6 -12 20 0
